cost: 1026.79
Route 1:           0    3    7   41   33   18    0
Route 2:           0    6    2   40   21    0
Route 3:           0    8   27   17   12    9    4   39   14   30    0
Route 4:           0   34   48   29   13    0
Route 5:           0   35   22   38   24   16   44   20    1    0
Route 6:           0   36   10   25   15   32   37    0
Route 7:           0   42   19   49   47    5   11   50    0
Route 8:           0   43   28   26    0
Route 9:           0   45   23   31   46    0
